<?xml version = "1.0" standalone="yes"?>
<!-- This file has been generated by DOcplex version 2.23.222  -->
<CPLEXSolution version="1.0">
 <header
   problemName="CVRP"
   objectiveValue="18524.9"
  />
 <variables>
  <variable name="x_0_1" index="0" value="1.00000"/>
  <variable name="x_0_4" index="3" value="1.00000"/>
  <variable name="x_0_5" index="4" value="1.00000"/>
  <variable name="x_0_6" index="5" value="1.00000"/>
  <variable name="x_0_9" index="8" value="1.00000"/>
  <variable name="x_0_11" index="10" value="1.00000"/>
  <variable name="x_0_12" index="11" value="1.00000"/>
  <variable name="x_0_14" index="13" value="1.00000"/>
  <variable name="x_0_15" index="14" value="1.00000"/>
  <variable name="x_0_16" index="15" value="1.00000"/>
  <variable name="x_0_19" index="18" value="1.00000"/>
  <variable name="x_0_20" index="19" value="1.00000"/>
  <variable name="x_0_21" index="20" value="1.00000"/>
  <variable name="x_0_24" index="23" value="1.00000"/>
  <variable name="x_1_0" index="29" value="1.00000"/>
  <variable name="x_2_29" index="86" value="1.00000"/>
  <variable name="x_3_0" index="87" value="1.00000"/>
  <variable name="x_4_27" index="142" value="1.00000"/>
  <variable name="x_5_0" index="145" value="1.00000"/>
  <variable name="x_6_7" index="180" value="1.00000"/>
  <variable name="x_7_18" index="220" value="1.00000"/>
  <variable name="x_8_17" index="248" value="1.00000"/>
  <variable name="x_9_13" index="273" value="1.00000"/>
  <variable name="x_10_23" index="312" value="1.00000"/>
  <variable name="x_11_8" index="327" value="1.00000"/>
  <variable name="x_12_22" index="369" value="1.00000"/>
  <variable name="x_13_0" index="377" value="1.00000"/>
  <variable name="x_14_10" index="416" value="1.00000"/>
  <variable name="x_15_0" index="435" value="1.00000"/>
  <variable name="x_16_0" index="464" value="1.00000"/>
  <variable name="x_17_0" index="493" value="1.00000"/>
  <variable name="x_18_0" index="522" value="1.00000"/>
  <variable name="x_19_2" index="553" value="1.00000"/>
  <variable name="x_20_26" index="605" value="1.00000"/>
  <variable name="x_21_28" index="636" value="1.00000"/>
  <variable name="x_22_3" index="641" value="1.00000"/>
  <variable name="x_23_0" index="667" value="1.00000"/>
  <variable name="x_24_25" index="720" value="1.00000"/>
  <variable name="x_25_0" index="725" value="1.00000"/>
  <variable name="x_26_0" index="754" value="1.00000"/>
  <variable name="x_27_0" index="783" value="1.00000"/>
  <variable name="x_28_0" index="812" value="1.00000"/>
  <variable name="x_29_0" index="841" value="1.00000"/>
  <variable name="u_1" index="870" value="22.00000"/>
  <variable name="u_2" index="871" value="13.00000"/>
  <variable name="u_3" index="872" value="22.00000"/>
  <variable name="u_4" index="873" value="10.00000"/>
  <variable name="u_5" index="874" value="22.00000"/>
  <variable name="u_6" index="875" value="9.00000"/>
  <variable name="u_7" index="876" value="19.00000"/>
  <variable name="u_8" index="877" value="5.00000"/>
  <variable name="u_9" index="878" value="17.00000"/>
  <variable name="u_10" index="879" value="18.00000"/>
  <variable name="u_11" index="880" value="1.00000"/>
  <variable name="u_12" index="881" value="11.00000"/>
  <variable name="u_13" index="882" value="22.00000"/>
  <variable name="u_14" index="883" value="14.00000"/>
  <variable name="u_15" index="884" value="18.00000"/>
  <variable name="u_16" index="885" value="22.00000"/>
  <variable name="u_17" index="886" value="18.00000"/>
  <variable name="u_18" index="887" value="22.00000"/>
  <variable name="u_19" index="888" value="5.00000"/>
  <variable name="u_20" index="889" value="17.00000"/>
  <variable name="u_21" index="890" value="13.00000"/>
  <variable name="u_22" index="891" value="20.00000"/>
  <variable name="u_23" index="892" value="22.00000"/>
  <variable name="u_24" index="893" value="8.00000"/>
  <variable name="u_25" index="894" value="22.00000"/>
  <variable name="u_26" index="895" value="22.00000"/>
  <variable name="u_27" index="896" value="20.00000"/>
  <variable name="u_28" index="897" value="22.00000"/>
  <variable name="u_29" index="898" value="22.00000"/>
 </variables>
</CPLEXSolution>
